SCIP version 5.0.0 [precision: 8 byte] [memory: block] [mode: optimized] [LP solver: NONE] [GitHash: 3bbd232]
Copyright (C) 2002-2017 Konrad-Zuse-Zentrum fuer Informationstechnik Berlin (ZIB)

External codes: 
  Readline EditLine w  GNU library for command line editing (gnu.org/s/readline)
  CppAD 20160000.1     Algorithmic Differentiation of C++ algorithms developed by B. Bell (www.coin-or.org/CppAD)
  ZLIB 1.2.5           General purpose compression library by J. Gailly and M. Adler (zlib.net)
  GMP 6.1.2            GNU Multiple Precision Arithmetic Library developed by T. Granlund (gmplib.org)

user parameter file <scip.set> not found - using default parameters

read problem <../../Split_data/output/biodeg/5/0_sample_biodeg.logreg>
============

File name	:	../../Split_data/output/biodeg/5/0_sample_biodeg.logreg
Problem name 	:	0_sample_biodeg
Number of data	:	844
Number of var	:	41
The given data has linear independence

[dim=1] time: 0.033291
[dim=2] time: 0.062035
[dim=3] time: 0.096174
[dim=4] time: 0.127252
[dim=5] time: 0.15737
[dim=6] time: 0.188208
[dim=7] time: 0.224533
[dim=8] time: 0.250923
[dim=9] time: 0.277519
[dim=10] time: 0.311232
[dim=11] time: 0.345118
[dim=12] time: 0.371709
[dim=13] time: 0.397325
[dim=14] time: 0.422704
[dim=15] time: 0.448404
[dim=16] time: 0.473517
[dim=17] time: 0.498823
[dim=18] time: 0.523227
[dim=19] time: 0.546295
[dim=20] time: 0.56227
[dim=21] time: 0.579934
[dim=22] time: 0.596102
[dim=23] time: 0.610914
[dim=24] time: 0.623854
[dim=25] time: 0.63864
[dim=26] Time of forward = 0.650304sec.
AIC: 519.808
k: 25

[dim=41] time: 0.14834
[dim=40] time: 0.197054
[dim=39] time: 0.257453
[dim=38] time: 0.310746
[dim=37] time: 0.350663
[dim=36] time: 0.394039
[dim=35] time: 0.445046
[dim=34] time: 0.521793
[dim=33] time: 0.574634
[dim=32] time: 0.612596
[dim=31] time: 0.647074
[dim=30] time: 0.679587
[dim=29] time: 0.707455
[dim=28] time: 0.736592
[dim=27] time: 0.79151
[dim=26] time: 0.82285
[dim=25] time: 0.851385
[dim=24] time: 0.874213
[dim=23] time: 0.897258
[dim=22] time: 0.922187
[dim=21] Time of backward = 0.94054sec.
AIC: 514.381
k: 22
